DIMENSION :7
NODE_COORD_SECTION
1 89.58088594224884 24.181107295690026
2 33.35579290064388 -68.70841007406923
3 -45.13960030607471 47.93244378797826
4 -36.94919055201462 -19.64760349051427
5 -3.8700125040293614 64.77909931548783
6 -32.44864765606263 -33.4360072469791
7 -53.93557873788573 95.23954622154383
EOF
